c generated by sgen
p cnf 41 92
-2 -3 -4 0
-1 -3 -4 0
-1 -2 -4 0
-1 -2 -3 0
-6 -7 -8 0
-5 -7 -8 0
-5 -6 -8 0
-5 -6 -7 0
-10 -11 -12 0
-9 -11 -12 0
-9 -10 -12 0
-9 -10 -11 0
-14 -15 -16 0
-13 -15 -16 0
-13 -14 -16 0
-13 -14 -15 0
-18 -19 -20 0
-17 -19 -20 0
-17 -18 -20 0
-17 -18 -19 0
-22 -23 -24 0
-21 -23 -24 0
-21 -22 -24 0
-21 -22 -23 0
-26 -27 -28 0
-25 -27 -28 0
-25 -26 -28 0
-25 -26 -27 0
-30 -31 -32 0
-29 -31 -32 0
-29 -30 -32 0
-29 -30 -31 0
-34 -35 -36 0
-33 -35 -36 0
-33 -34 -36 0
-33 -34 -35 0
-37 -38 -39 0
-37 -38 -40 0
-37 -38 -41 0
-37 -39 -40 0
-37 -39 -41 0
-37 -40 -41 0
-38 -39 -40 0
-38 -39 -41 0
-38 -40 -41 0
-39 -40 -41 0
12 41 21 0
16 41 21 0
16 12 21 0
16 12 41 0
11 31 27 0
22 31 27 0
22 11 27 0
22 11 31 0
39 23 1 0
35 23 1 0
35 39 1 0
35 39 23 0
10 19 2 0
36 19 2 0
36 10 2 0
36 10 19 0
15 18 30 0
34 18 30 0
34 15 30 0
34 15 18 0
6 9 40 0
17 9 40 0
17 6 40 0
17 6 9 0
28 38 13 0
4 38 13 0
4 28 13 0
4 28 38 0
7 3 14 0
32 3 14 0
32 7 14 0
32 7 3 0
24 20 26 0
5 20 26 0
5 24 26 0
5 24 20 0
8 37 25 0
8 37 29 0
8 37 33 0
8 25 29 0
8 25 33 0
8 29 33 0
37 25 29 0
37 25 33 0
37 29 33 0
25 29 33 0
